 $CONTRL COORD=CART UNITS=ANGS $END

 $DATA

C1
C      6.0     -3.3295277176    1.4348062857    0.0000000000 
C      6.0     -2.3667726129    2.4048162035   -0.0000000000 
H      1.0     -4.3465985190    1.7671720253    0.0000000000 
H      1.0     -3.1738982851    0.7894994323    0.8392011348 
H      1.0     -3.2090887197    0.9354141750   -0.9386170505 
H      1.0     -2.4174752533    2.9583736367    0.9142775347 
H      1.0     -2.4994985929    3.0584796141   -0.8366647835 
H      1.0     -1.4039974906    1.9448086945   -0.0797317714 
 $END


