#Put Keywords Here, check Charge and Multiplicity.

 

0  1
C          -3.32953         1.43481         0.00000
C          -2.36677         2.40482        -0.00000
H          -4.34660         1.76717         0.00000
H          -3.17390         0.78950         0.83920
H          -3.20909         0.93541        -0.93862
H          -2.41748         2.95837         0.91428
H          -2.49950         3.05848        -0.83666
H          -1.40400         1.94481        -0.07973

